NAME: tsp50_14
COMMENT: 50-tsp problem (Padberg/Rinaldi)
TYPE: TSP
DIMENSION: 50
EDGE_WEIGHT_TYPE : EUC_2D
NODE_COORD_SECTION
1 12 6
2 22 29
3 31 7
4 26 35
5 15 39
6 11 2
7 25 13
8 23 37
9 24 2
10 24 15
11 33 17
12 22 10
13 28 39
14 5 33
15 25 25
16 17 18
17 10 14
18 8 23
19 14 36
20 16 11
21 5 38
22 5 21
23 27 33
24 33 15
25 28 35
26 10 4
27 26 16
28 35 11
29 16 30
30 8 36
31 35 17
32 23 27
33 34 35
34 15 16
35 8 24
36 16 7
37 28 14
38 17 34
39 1 9
40 8 15
41 13 38
42 10 30
43 15 36
44 12 28
45 33 21
46 34 13
47 38 6
48 4 31
49 28 24
50 14 9
